100
150
100
98
95
95
94
92
92
92
90
88
88
87
87
87
86
86
83
83
82
82
81
80
77
76
75
75
75
74
73
70
70
68
66
66
66
65
64
64
60
59
58
56
55
52
52
52
52
52
51
49
49
48
46
44
42
42
41
41
41
40
40
39
38
36
36
35
34
34
34
31
31
30
27
27
27
24
24
22
21
20
15
15
15
14
14
12
12
11
10
9
7
6
6
5
4
4
3
3
2
1
